p cnf 1034 578
a 2 3 4 5 6 7 8 9 10 11 12 13 14 15 16 17 18 19 20 28 29 30 31 32 33 34 35 36 37 38 39 40 41 42 43 44 45 46 47 48 49 50 51 0
d 52 35 36 37 0
d 53 35 36 38 39 0
d 54 35 36 40 0
d 55 41 42 0
d 56 35 36 37 38 39 40 41 42 43 44 45 46 47 48 49 50 51 0
e 99 100 102 103 105 106 108 109 117 118 140 232 329 386 393 394 397 403 404 413 414 423 425 426 431 432 436 440 446 449 464 467 478 486 487 505 528 536 552 564 571 580 581 590 624 646 956 990 996 998 999 1017 1018 1019 1020 1021 1022 1023 1024 1025 1026 1027 1028 1029 1030 1031 0
12 33 -423 956 996 0
2 4 5 -6 -8 -9 10 108 109 140 0
-4 5 7 -8 100 0
-5 6 8 -624 0
3 4 5 -6 -7 8 -140 0
-4 -5 8 -624 0
2 5 6 8 -9 10 102 103 105 106 140 0
4 -5 -6 -8 -624 0
4 5 -6 8 -624 0
2 -4 5 8 -9 10 105 106 140 0
5 6 -8 100 -140 0
2 -5 6 -8 -9 10 102 103 140 0
3 4 -5 -6 -7 -8 -140 0
2 -4 -5 -8 -9 10 102 105 106 140 0
2 4 -5 -6 8 -9 10 108 109 140 0
4 -6 -100 0
-3 -4 99 100 106 0
-3 4 -5 -8 103 -646 0
-3 -4 5 -8 100 0
9 -140 0
-3 5 -8 100 109 0
5 8 -109 0
5 -8 100 624 646 0
-3 -5 8 99 109 0
-3 -5 6 8 99 0
8 -100 0
3 -7 -99 0
-5 6 7 8 99 0
-8 -99 0
5 -99 0
-5 -100 0
3 -7 -100 0
-99 -103 0
6 7 99 100 102 0
-7 -102 0
-6 -102 0
3 -103 0
-6 -103 0
-99 -105 0
-7 -105 0
4 -105 0
3 -106 0
4 -106 0
-99 -108 0
-7 -108 0
2 4 -5 -6 7 -8 -9 10 140 0
3 -109 0
4 -5 7 -8 102 -646 0
-99 -646 0
-10 -140 0
-102 -140 0
-103 -140 0
-4 -5 -8 624 0
-105 -140 0
-106 -140 0
-5 6 -8 624 0
-108 -140 0
-3 5 6 -8 100 0
-4 -5 7 8 99 0
5 -117 0
-8 -118 0
-4 -118 0
-2 3 5 -9 10 118 -1017 0
-5 7 -8 102 105 106 -646 0
4 5 7 8 102 103 -646 0
-99 -106 0
5 7 8 102 105 -646 0
-4 5 8 624 0
4 -5 -6 8 624 0
-5 -118 0
4 5 -6 -8 624 0
-2 3 8 -9 10 117 118 -1017 0
-100 -105 0
14 -17 -18 -20 552 0
-2 -140 0
-109 -140 0
-140 -646 -1017 0
-28 -30 -31 423 0
16 -17 -18 -19 -20 28 29 -571 -580 0
-29 -30 -31 -464 0
-29 394 404 413 414 423 0
-29 394 403 413 414 423 0
-28 -30 -31 -426 0
-29 393 403 413 414 423 0
-29 -30 -31 -32 486 0
-29 -30 -31 -425 0
19 -232 0
18 -232 0
17 -232 0
16 19 -34 580 0
-15 20 -436 0
-19 -20 436 0
20 -34 -552 580 0
20 -329 0
19 -329 0
18 -329 0
-18 -19 -20 329 0
-16 -425 0
-11 16 -17 52 -55 -386 956 0
-11 16 -17 30 52 -386 956 0
-29 -30 32 -34 580 0
28 29 31 32 487 0
-28 -30 386 0
-29 -30 386 0
-31 386 0
-28 -30 -487 0
-29 -30 528 0
11 -425 0
-29 -30 -31 423 0
-28 393 403 413 414 423 0
-15 -16 20 28 29 -232 397 -423 0
386 -426 0
-12 -16 17 31 -329 -386 426 0
-13 18 -19 30 449 -528 0
386 -425 0
-12 -16 17 30 52 -386 -996 0
17 -393 0
16 -393 0
13 -393 0
20 -394 0
19 -394 0
-18 -394 0
-17 -18 -20 28 29 -32 397 -446 464 0
30 31 -990 0
-28 -397 0
-29 -397 0
-31 -397 0
-19 28 29 -31 -32 52 -446 449 990 0
30 -31 -403 -404 -423 0
-17 -18 -20 -30 31 -32 397 -446 990 0
-17 -19 30 -31 -32 -446 449 464 0
28 29 -31 -403 -404 -423 0
-19 30 -31 -32 52 -446 449 990 0
-17 18 54 -423 467 956 -990 999 0
-18 -20 -30 31 -32 52 397 -446 990 0
17 -403 0
16 -403 0
14 -403 0
20 -404 0
-19 -404 0
18 -404 0
-17 -18 -19 232 0
-15 -16 20 30 -31 -232 413 0
16 423 0
-11 16 -17 28 29 -329 -386 425 0
-30 -413 0
31 -413 0
-20 393 403 423 0
30 -414 0
-31 -414 0
-20 394 403 423 0
-20 393 404 423 0
-20 -413 0
31 393 404 414 423 0
31 393 403 414 423 0
-28 -30 -31 -464 0
31 394 403 414 423 0
31 394 404 414 423 0
-397 -413 0
-19 -30 31 -32 52 397 -446 449 990 0
-17 -19 28 29 -31 -32 -446 449 464 0
15 394 404 423 0
-29 -30 -31 -426 0
-413 -423 0
-397 -414 0
16 -413 0
-414 -423 0
30 31 423 0
15 393 404 423 0
329 -425 0
-16 -956 0
-12 -16 17 28 29 -329 -386 426 0
11 -956 0
329 -426 0
-12 -16 17 30 -329 -386 426 0
12 53 -423 467 956 -990 999 0
-12 17 30 -999 0
423 -999 0
-32 33 -423 425 426 996 999 -1017 0
18 -431 0
-12 -431 0
-17 -18 -19 -20 -467 0
20 -432 0
19 -432 0
-13 -432 0
16 20 467 0
14 -20 436 0
19 -34 -552 580 0
15 -19 436 0
-16 -30 -31 -32 -232 436 -505 581 -590 0
20 -431 0
16 20 -34 580 0
12 -18 -19 -20 431 0
-16 -17 -18 -53 -999 0
17 431 440 0
-17 -18 -436 478 580 590 0
18 432 440 0
436 440 0
-449 -464 0
16 -17 -18 -19 -20 30 -571 -580 0
232 -414 0
18 446 0
11 -17 -18 -19 -20 -446 0
-11 446 0
20 446 0
19 446 0
-20 -449 0
-18 -449 0
-17 -18 -20 -30 31 -32 397 -446 464 0
28 29 -32 -329 397 -446 464 0
18 19 -990 0
-19 28 29 -32 52 397 -446 449 990 0
-17 -19 -30 31 -32 397 -446 449 990 0
-18 -20 30 -31 -32 52 -446 990 0
28 29 31 397 0
-397 -464 0
-18 -20 28 29 -31 -32 52 -446 990 0
17 329 -464 0
-18 -20 28 29 -32 52 397 -446 990 0
-28 393 404 413 414 423 0
28 29 397 -403 -404 -423 0
-17 -18 -20 30 -31 -32 -446 464 0
-17 -19 28 29 -32 397 -446 449 464 0
-17 -19 30 -31 -32 -446 449 990 0
28 29 -31 -32 -329 -446 464 0
-423 426 -440 -464 467 996 998 999 -1017 0
30 -31 -32 -329 -446 464 0
-17 -19 28 29 -30 -32 397 -446 449 990 0
17 -52 -990 0
12 -426 0
16 467 956 -990 999 0
-16 440 -998 -1017 0
-16 -467 0
-16 -17 28 29 431 432 552 -571 -580 0
-956 -996 0
33 -426 -999 -1017 0
232 393 404 423 0
16 425 -464 467 996 998 999 -1017 0
-33 -440 -464 467 998 999 -1017 0
33 -425 -999 -1017 0
-16 -33 440 -999 -1017 0
-425 464 -999 -1017 0
-467 -998 0
-28 394 404 413 414 423 0
16 -33 -464 467 998 999 -1017 0
-33 464 -999 -1017 0
-34 -478 0
-11 16 -20 34 478 0
-16 -478 0
11 -478 0
20 -478 0
-17 -432 478 580 590 0
-28 394 403 413 414 423 0
-14 -18 19 -20 28 29 -528 0
30 -31 580 590 0
30 -486 0
-17 -18 -20 28 29 -32 397 -446 990 0
16 17 467 0
-32 -487 0
-31 -487 0
32 232 -528 -536 580 590 0
28 29 31 -386 0
-232 -478 -486 -590 0
-34 486 487 580 0
17 31 -536 580 590 0
-16 17 34 -329 -486 -505 -590 0
-17 -18 232 -436 580 590 0
-431 -436 -440 0
-12 -19 -28 449 505 0
12 -18 -19 -20 -505 0
-12 -18 -20 -28 505 0
-18 19 -20 -29 505 0
-19 20 -28 449 505 0
-12 -19 -29 449 505 0
28 29 -393 -394 397 -423 0
-17 -18 -20 30 -31 -32 -446 990 0
17 -34 329 580 0
-17 -18 -20 28 29 -31 -32 -446 990 0
-30 31 -32 -329 397 -446 464 0
19 20 -990 0
-19 20 -29 449 505 0
19 20 -505 0
18 -19 -29 449 505 0
28 29 -505 0
-30 31 397 -403 -404 -423 0
-449 -505 0
19 20 -464 0
-16 17 -30 -31 -32 -329 -505 581 -590 0
-232 -478 -487 -590 0
17 505 -536 580 590 0
30 -31 -564 0
-32 478 505 580 590 0
-11 -18 -19 -564 571 0
-15 -19 20 28 29 449 -528 0
13 18 528 0
30 31 32 487 0
18 19 -571 0
18 -19 -28 449 505 0
-30 31 -393 -394 397 -423 0
-18 19 -20 -28 505 0
-17 -18 -436 -440 0
-449 528 0
-12 -18 -20 -29 505 0
-432 528 0
-19 -20 329 -564 571 0
-11 -19 -20 -564 571 0
-13 18 -19 28 29 449 -528 0
17 -19 -20 -564 571 0
19 20 528 0
-28 -30 528 0
-29 -30 -487 0
329 536 0
-12 17 28 29 31 32 -329 -536 0
-12 17 30 31 32 -329 -536 0
-29 -30 536 0
-17 536 0
-580 -590 0
-17 -432 -440 0
12 536 0
31 -32 580 590 0
32 478 -528 -536 580 590 0
-32 536 0
-31 536 0
-28 -30 536 0
17 30 -536 580 590 0
30 478 -528 -536 580 590 0
30 232 -528 -536 580 590 0
31 232 -528 -536 580 590 0
32 -486 0
31 478 -528 -536 580 590 0
13 -19 -20 432 0
15 -18 -19 528 0
-15 20 -552 0
15 -17 -18 -19 552 0
-14 19 -552 0
-16 -17 -32 431 432 552 -571 -580 0
17 -552 0
18 -552 0
-18 -19 -20 528 0
-16 -17 -34 -432 580 0
-17 -18 -19 -20 552 0
-16 30 -329 431 552 -571 -580 0
-16 17 28 29 -329 431 -571 -580 0
-16 -34 -431 580 0
17 -34 -431 580 0
-16 -17 30 431 432 552 -571 -580 0
-16 -32 -329 431 552 -571 -580 0
232 -413 0
16 -17 -18 -19 -20 -32 -571 -580 0
31 32 564 0
30 -32 580 590 0
-28 -30 -31 564 0
-329 436 0
-29 -30 -31 564 0
-32 232 505 580 590 0
-18 -20 329 -564 571 0
18 19 528 0
-18 -19 329 -564 571 0
11 -17 -329 -571 0
17 -18 -19 -564 571 0
-11 -18 -20 -564 571 0
17 -18 -20 -564 571 0
-32 -426 -996 -1017 0
19 20 -571 0
18 19 -505 0
564 -571 0
-467 -999 0
18 20 -571 0
-426 464 -999 0
-32 -425 -996 -1017 0
-28 -30 -31 -990 0
-16 17 30 -329 431 -571 -580 0
-16 -17 18 -30 -31 -32 432 -505 581 -590 0
19 20 -436 0
28 29 -31 -393 -394 -423 0
19 -431 0
16 17 -34 580 0
232 394 403 423 0
-34 571 580 0
18 -34 -432 580 0
16 19 467 0
32 -990 0
34 -580 0
-16 -34 -552 580 0
-478 -581 0
34 -581 0
-580 -581 0
-34 580 581 0
-16 -17 31 32 34 528 -590 0
31 -486 0
-16 -17 436 -486 -505 581 -590 0
16 478 580 590 0
16 232 580 590 0
-16 31 32 -232 528 581 -590 0
16 18 -34 580 0
-17 232 -432 580 590 0
232 505 -528 -536 580 590 0
-31 232 505 580 590 0
-31 478 505 580 590 0
478 505 -528 -536 580 590 0
486 487 580 590 0
-581 590 0
-16 -17 -30 -31 -32 34 436 -505 -590 0
-16 -17 18 432 -486 -505 581 -590 0
-16 -17 -487 528 581 -590 0
-16 536 581 -590 0
17 32 -536 580 590 0
-31 32 580 590 0
-56 590 -1017 0
-3 -4 -5 8 99 0
4 -6 -99 0
-5 6 8 99 -140 0
-4 -5 8 99 -140 0
5 6 -8 -624 0
-4 5 -8 -624 0
-4 5 -8 100 -140 0
-5 7 8 99 108 0
2 -3 4 5 -6 8 -9 10 140 0
-3 6 99 100 103 0
6 99 100 624 646 0
-100 -102 0
-4 7 99 100 105 0
5 6 7 -8 100 0
-4 99 100 624 646 0
-99 -109 0
-99 -102 0
2 -3 4 -5 -6 -8 -9 10 140 0
102 103 105 106 108 109 -624 -646 0
-3 -5 -8 103 106 -624 0
-5 8 99 624 646 0
5 8 102 103 105 106 -624 -646 0
-102 646 0
-103 646 0
-105 646 0
-106 646 0
-108 646 0
-109 646 0
-100 -103 0
-3 4 5 8 103 -646 0
4 -117 0
5 7 -8 100 108 0
-100 -108 0
-100 -646 0
-100 -106 0
31 -32 -564 0
-100 -109 0
-2 3 -4 -5 -9 10 117 -1017 0
-16 28 29 -329 431 432 552 -571 -580 0
-8 -117 0
3 -7 624 646 0
14 -18 -20 528 0
2 -9 10 140 646 -1017 0
5 6 8 624 0
2 4 5 -6 7 8 -9 10 140 0
-29 -30 -31 -990 0
-29 393 404 413 414 423 0
17 -956 0
30 31 -386 0
-14 -18 19 -20 30 -528 0
-15 -19 20 30 449 -528 0
-12 -16 17 31 -999 0
-30 -31 55 -956 0
-30 -31 33 55 -423 996 0
-11 16 -17 31 52 -386 956 0
-11 16 -17 31 -329 -386 425 0
17 -30 -31 55 431 467 -990 999 0
-17 33 -423 956 996 0
-13 -16 -17 393 0
18 -19 -20 394 0
-17 53 -423 467 956 -990 999 0
-397 423 0
28 29 -486 0
30 -31 -393 -394 -423 0
-14 -16 -17 403 0
-18 19 -20 404 0
-15 -16 20 -30 31 -232 397 414 0
15 -413 0
15 -414 0
-28 -30 -31 -32 486 0
-20 -414 0
-20 394 404 423 0
15 393 403 423 0
15 394 403 423 0
16 -414 0
-52 -956 0
17 -425 0
-12 -16 17 52 -55 -386 -996 0
-52 53 -423 467 -990 999 0
-12 17 -55 -999 0
386 -956 0
16 33 956 996 0
33 -52 -423 996 0
12 18 54 -423 467 -990 999 0
-16 -17 -18 -53 -998 0
-449 -990 0
-16 -17 -53 -54 -999 0
12 17 431 467 -990 999 0
-16 -53 -431 -998 0
18 -33 54 467 -990 998 0
232 393 403 423 0
17 446 0
18 20 449 0
-17 -19 -30 31 -32 397 -446 449 464 0
-17 -19 28 29 -31 -32 -446 449 990 0
-17 -18 -20 28 29 -31 -32 -446 464 0
-397 -990 0
-28 -30 -31 -425 0
30 31 -464 0
386 -990 0
32 -464 0
-30 -31 53 55 -423 467 -990 999 0
18 19 -464 0
-28 -30 32 -34 580 0
18 -30 -31 54 55 -423 467 -990 999 0
-12 -16 17 31 52 -386 -996 0
-11 16 -17 30 -329 -386 425 0
16 -33 467 -990 998 0
-16 -53 -431 -999 0
-14 19 -436 0
990 -999 0
18 -52 54 -423 467 -990 999 0
17 -33 431 467 -990 998 0
-16 -17 -53 -54 -998 0
-33 -996 0
-17 -426 0
423 -996 0
446 -464 0
-956 -999 0
33 -998 0
-33 53 467 -990 998 0
16 -426 0
446 -990 0
990 -998 0
464 -998 -1017 0
232 394 404 423 0
30 -32 -564 0
28 29 -32 -564 0
28 29 -31 -564 0
56 -590 -1017 0
-20 -35 -1018 0
20 35 -1018 0
-19 -36 -1019 0
19 36 -1019 0
-18 -37 -1020 0
18 37 -1020 0
-14 -38 -1021 0
14 38 -1021 0
-15 -39 -1022 0
15 39 -1022 0
-13 -40 -1023 0
13 40 -1023 0
-29 -41 -1024 0
29 41 -1024 0
-28 -42 -1025 0
28 42 -1025 0
-16 -43 -1026 0
16 43 -1026 0
-11 -44 -1027 0
11 44 -1027 0
-34 -45 -1028 0
34 45 -1028 0
-17 -46 -1029 0
17 46 -1029 0
-30 -47 -1030 0
30 47 -1030 0
-32 -48 -1031 0
32 48 -1031 0
-12 -31 -49 -50 51 564 1017 1018 1019 1020 1021 1022 1023 1024 1025 1026 1027 1028 1029 1030 1031 0
12 31 49 50 51 564 1017 1018 1019 1020 1021 1022 1023 1024 1025 1026 1027 1028 1029 1030 1031 0
12 -31 -49 50 -51 -564 1017 1018 1019 1020 1021 1022 1023 1024 1025 1026 1027 1028 1029 1030 1031 0
-12 -31 -49 -50 -51 -564 1017 1018 1019 1020 1021 1022 1023 1024 1025 1026 1027 1028 1029 1030 1031 0
-12 31 49 -50 -51 -564 1017 1018 1019 1020 1021 1022 1023 1024 1025 1026 1027 1028 1029 1030 1031 0
-31 486 580 590 0
-12 31 49 -50 51 564 1017 1018 1019 1020 1021 1022 1023 1024 1025 1026 1027 1028 1029 1030 1031 0
12 -31 -49 50 51 564 1017 1018 1019 1020 1021 1022 1023 1024 1025 1026 1027 1028 1029 1030 1031 0
16 18 467 0
12 31 49 50 -51 -564 1017 1018 1019 1020 1021 1022 1023 1024 1025 1026 1027 1028 1029 1030 1031 0
17 329 580 590 0
